;; sequence(s): A167585
;; terms: 13 41 93 169 269 393 541 713 909 1129 1373 1641 1933 2249 2589 2953 3341 3753 4189 4649
;; small program: loop2(((2 * (x + y)) + y) * y, 2, 2, 2, x) + 1
;; fast program: 1 + (2 * (2 + (2 * (2 + (((2 * (2 + x)) + x) * x)))))
(set-logic UFNIA)
(declare-fun f0 (Int Int) Int)
(declare-fun g0 () Int)
(declare-fun h0 () Int)
(declare-fun i0 () Int)
(declare-fun j0 (Int) Int)
(declare-fun u0 (Int Int Int) Int)
(declare-fun v0 (Int Int Int) Int)
(declare-fun w0 (Int) Int)
(declare-fun small (Int) Int)
(declare-fun fast (Int) Int)
(assert (forall ((x Int) (y Int)) (= (f0 x y) (* (+ (* 2 (+ x y)) y) y))))
(assert (= g0 2))
(assert (= h0 2))
(assert (= i0 2))
(assert (forall ((x Int)) (= (j0 x) x)))
(assert (forall ((x Int) (y Int) (z Int)) (= (u0 x y z) (ite (<= x 0) y (f0 (u0 (- x 1) y z) (v0 (- x 1) y z))))))
(assert (forall ((x Int) (y Int) (z Int)) (= (v0 x y z) (ite (<= x 0) z g0))))
(assert (forall ((x Int)) (= (w0 x) (u0 h0 i0 (j0 x)))))
(assert (forall ((x Int)) (= (small x) (+ (w0 x) 1))))
(assert (forall ((x Int)) (= (fast x) (+ 1 (* 2 (+ 2 (* 2 (+ 2 (* (+ (* 2 (+ 2 x)) x) x)))))))))
(assert (exists ((c Int)) (and (>= c 0) (not (= (small c) (fast c))))))
(check-sat)
